2 0 2 0
0 0 2 5
2 1 3 5
1 0 1 0
5 0 1 8
0 1 0 6
1 1 2 8
3 0 1 11
2 2 5 9
3 1 0 16
0 2 1 16
5 1 3 11
1 2 4 13
4 0 2 13
2 3 0 21
3 2 2 22
4 1 1 22
4 2 4 25
5 2 5 17
5 3 0 30
3 3 3 27
0 3 3 30
1 3 5 26
3 4 4 30
4 3 5 36
2 4 1 30
2 5 4 38
1 4 0 40
0 4 5 40
4 4 0 50
5 4 4 45
1 5 3 50
3 5 5 43
4 5 3 54
0 5 4 49
5 5 2 49

